c This is QMaxSAT 2017 based on 14.07
c This is Glucose 3.0
c This is MiniSat 2.2.0
c WARNING: for repeatability, setting FPU to use double precision
c card = mrwto, comp = 0, pmodel = 0, narr = 8, mct = 76, verb = 0
cr firstCPXsol 0 0 0
c top = 189219
c |  Number of variables:    13778                                            |
c |  Number of clauses:      1055191                                          |
c |  Weight of hard clauses: 189219                                           |
c |  Number of soft clauses: 54000                                            |
c |  Number of unit soft clauses: 0                                           |
c |  Maximum Cardinality (by unit): 1778736      (0           )               |
c last restart ## conflicts  :  0 362 
o 433 | cpuTime 0.130463 s
c Sum of weights = 222342
c A number of soft clauses remained = 6750
c MRWTO encoding for Pseudo-Boolean Constraints
c sizeMax=433
c No.0 Divisor=8	generated by pow1
c No.1 Divisor=8	generated by pow1
c No.2 Divisor=8	generated by pow1
c p0= 8	p1= 8	p2= 8	
c number of digits = 4
c linkingVar[0].size = 8, linkingVar[1].size = 8, linkingVar[2].size = 7, linkingVar[3].size = 1, 
c Pseudo-Boolean Constraints: 109536 variables and 727630 clauses
c Sum of weights = 222342
c A number of soft clauses remained = 6750
c MRWTO encoding for Pseudo-Boolean Constraints
c sizeMax=433
c No.0 Divisor=8	generated by pow1
c No.1 Divisor=8	generated by pow1
c No.2 Divisor=8	generated by pow1
c p0= 8	p1= 8	p2= 8	
c number of digits = 4
c linkingVar[0].size = 8, linkingVar[1].size = 8, linkingVar[2].size = 7, linkingVar[3].size = 1, 
c Pseudo-Boolean Constraints: 109536 variables and 727630 clauses
c Sum of weights = 222342
c A number of soft clauses remained = 6750
c MRWTO encoding for Pseudo-Boolean Constraints
c sizeMax=433
c No.0 Divisor=8	generated by pow1
c No.1 Divisor=8	generated by pow1
c No.2 Divisor=8	generated by pow1
c p0= 8	p1= 8	p2= 8	
c number of digits = 4
c linkingVar[0].size = 8, linkingVar[1].size = 8, linkingVar[2].size = 7, linkingVar[3].size = 1, 
c Pseudo-Boolean Constraints: 109536 variables and 727630 clauses
c Sum of weights = 222342
c A number of soft clauses remained = 6750
c MRWTO encoding for Pseudo-Boolean Constraints
c sizeMax=433
c No.0 Divisor=8	generated by pow1
c No.1 Divisor=8	generated by pow1
c No.2 Divisor=8	generated by pow1
c p0= 8	p1= 8	p2= 8	
c number of digits = 4
c linkingVar[0].size = 8, linkingVar[1].size = 8, linkingVar[2].size = 7, linkingVar[3].size = 1, 
c Pseudo-Boolean Constraints: 109536 variables and 727630 clauses
c Sum of weights = 222342
c A number of soft clauses remained = 6750
c MRWTO encoding for Pseudo-Boolean Constraints
c sizeMax=433
c No.0 Divisor=8	generated by pow1
c No.1 Divisor=8	generated by pow1
c No.2 Divisor=8	generated by pow1
c p0= 8	p1= 8	p2= 8	
c number of digits = 4
c linkingVar[0].size = 8, linkingVar[1].size = 8, linkingVar[2].size = 7, linkingVar[3].size = 1, 
c Pseudo-Boolean Constraints: 109536 variables and 727630 clauses
c Sum of weights = 222342
c A number of soft clauses remained = 6750
c MRWTO encoding for Pseudo-Boolean Constraints
c sizeMax=433
c No.0 Divisor=8	generated by pow1
c No.1 Divisor=8	generated by pow1
c No.2 Divisor=8	generated by pow1
c p0= 8	p1= 8	p2= 8	
c number of digits = 4
c linkingVar[0].size = 8, linkingVar[1].size = 8, linkingVar[2].size = 7, linkingVar[3].size = 1, 
c Pseudo-Boolean Constraints: 109536 variables and 727630 clauses
c Sum of weights = 222342
c A number of soft clauses remained = 6750
c MRWTO encoding for Pseudo-Boolean Constraints
c sizeMax=433
c No.0 Divisor=8	generated by pow1
c No.1 Divisor=8	generated by pow1
c No.2 Divisor=8	generated by pow1
c p0= 8	p1= 8	p2= 8	
c number of digits = 4
c linkingVar[0].size = 8, linkingVar[1].size = 8, linkingVar[2].size = 7, linkingVar[3].size = 1, 
c Pseudo-Boolean Constraints: 109536 variables and 727630 clauses
c Sum of weights = 222342
c A number of soft clauses remained = 6750
c MRWTO encoding for Pseudo-Boolean Constraints
c sizeMax=433
c No.0 Divisor=8	generated by pow1
c No.1 Divisor=8	generated by pow1
c No.2 Divisor=8	generated by pow1
c p0= 8	p1= 8	p2= 8	
c number of digits = 4
c linkingVar[0].size = 8, linkingVar[1].size = 8, linkingVar[2].size = 7, linkingVar[3].size = 1, 
c Pseudo-Boolean Constraints: 109536 variables and 727630 clauses
c last restart ## conflicts  :  784 13544 
o 432 | cpuTime 146.763 s
c last restart ## conflicts  :  423 8594 
o 421 | cpuTime 442.601 s
c last restart ## conflicts  :  447 7529 
o 369 | cpuTime 610.773 s
c last restart ## conflicts  :  329 12957 
o 348 | cpuTime 2830.44 s
s UNKNOWN
c Search is stopped by a limit (maybe time-limit)
cr positiVarArr: [ | 69(1->62) | 113(1->23) | 192(1->19) | 308(1->52) | 408(1->69) | 494(1->72) | 507(1->2) | 661(1->73) | 693(2->22) | 794(3->40) | 864(4->27) | 967(5->47) | 1010(6->7) | 1100(7->14) | 1194(8->25) | 1284(9->32) | 1393(10->58) | 1415(11->1) | 1568(12->67) | 1592(13->8) | 1720(14->53) | 1805(15->55) | 1890(16->57) | 1917(17->1) | 2005(18->6) | 2086(19->4) | 2235(20->70) | 2322(21->74) | 2390(22->59) | 2442(23->28) | 2514(24->17) | 2629(25->49) | 2713(26->50) | 2759(27->13) | 2844(28->15) | 2987(29->75) | 3063(30->68) | 3099(31->21) | 3205(32->44) | 3295(33->51) | 3368(34->41) | 3475(35->65) | 3541(36->48) | 3596(37->20) | 3669(38->10) | 3751(39->9) | 3837(40->12) | 3969(41->61) | 4055(42->64) | 4068(43->1) | 4152(44->1) | 4277(45->37) | 4368(46->45) | 4406(47->1) | 4519(48->30) | 4568(49->1) | 4726(50->71) | 4741(51->3) | 4877(52->56) | 4903(53->1) | 5021(54->34) | 5124(55->54) | 5169(56->16) | 5234(57->1) | 5358(58->39) | 5478(59->76) | 5521(60->36) | 5573(61->5) | 5686(62->35) | 5745(63->11) | 5846(64->29) | 5931(65->31) | 6021(66->38) | 6112(67->46) | 6215(68->66) | 6274(69->42) | 6375(70->60) | 6441(71->43) | 6507(72->26) | 6597(73->33) | 6710(74->63) | 6748(75->18) | 6837(76->24) | ]
cr the 1-th chain: [ 1->62->35->65->31->21->74->63->11->1 ] (#non-depot=8) {#cumul.=9}
cr the 2-th chain: [ 1->23->28->15->55->54->34->41->61->5->47->1 ] (#non-depot=10) {#cumul.=19}
cr the 3-th chain: [ 1->19->4->27->13->8->25->49->1 ] (#non-depot=7) {#cumul.=26}
cr the 4-th chain: [ 1->52->56->16->57->1 ] (#non-depot=4) {#cumul.=30}
cr the 5-th chain: [ 1->69->42->64->29->75->18->6->7->14->53->1 ] (#non-depot=10) {#cumul.=40}
cr the 6-th chain: [ 1->72->26->50->71->43->1 ] (#non-depot=5) {#cumul.=45}
cr the 7-th chain: [ 1->2->22->59->76->24->17->1 ] (#non-depot=6) {#cumul.=51}
cr the 8-th chain: [ 1->73->33->51->3->40->12->67->46->45->37->20->70->60->36->48->30->68->66->38->10->58->39->9->32->44->1 ] (#non-depot=25) {#cumul.=76}
c Latest Answer = 0 by 5 loops
c restarts              : 42525
c conflicts             : 7120526        (1980 /sec)
c decisions             : 126836057      (0.00 % random) (35270 /sec)
c propagations          : 38546685341    (10718951 /sec)
c conflict literals     : 793676919      (34.32 % deleted)
c Memory used           : 962.00 MB
c CPU time              : 3596.12 s
